; benchmark generated from python API
(set-info :status unknown)
(declare-fun cell_1_3 () Int)
(declare-fun cell_2_6 () Int)
(declare-fun cell_3_8 () Int)
(declare-fun cell_4_2 () Int)
(declare-fun cell_5_9 () Int)
(declare-fun cell_6_4 () Int)
(declare-fun cell_7_5 () Int)
(declare-fun cell_8_1 () Int)
(declare-fun cell_1_1 () Int)
(declare-fun cell_2_1 () Int)
(declare-fun cell_3_1 () Int)
(declare-fun cell_4_1 () Int)
(declare-fun cell_5_1 () Int)
(declare-fun cell_6_1 () Int)
(declare-fun cell_7_1 () Int)
(declare-fun cell_9_1 () Int)
(declare-fun cell_1_2 () Int)
(declare-fun cell_2_2 () Int)
(declare-fun cell_3_2 () Int)
(declare-fun cell_5_2 () Int)
(declare-fun cell_6_2 () Int)
(declare-fun cell_7_2 () Int)
(declare-fun cell_8_2 () Int)
(declare-fun cell_9_2 () Int)
(declare-fun cell_2_3 () Int)
(declare-fun cell_3_3 () Int)
(declare-fun cell_4_3 () Int)
(declare-fun cell_5_3 () Int)
(declare-fun cell_6_3 () Int)
(declare-fun cell_7_3 () Int)
(declare-fun cell_8_3 () Int)
(declare-fun cell_9_3 () Int)
(declare-fun cell_1_4 () Int)
(declare-fun cell_2_4 () Int)
(declare-fun cell_3_4 () Int)
(declare-fun cell_4_4 () Int)
(declare-fun cell_5_4 () Int)
(declare-fun cell_7_4 () Int)
(declare-fun cell_8_4 () Int)
(declare-fun cell_9_4 () Int)
(declare-fun cell_1_5 () Int)
(declare-fun cell_2_5 () Int)
(declare-fun cell_3_5 () Int)
(declare-fun cell_4_5 () Int)
(declare-fun cell_5_5 () Int)
(declare-fun cell_6_5 () Int)
(declare-fun cell_8_5 () Int)
(declare-fun cell_9_5 () Int)
(declare-fun cell_1_6 () Int)
(declare-fun cell_3_6 () Int)
(declare-fun cell_4_6 () Int)
(declare-fun cell_5_6 () Int)
(declare-fun cell_6_6 () Int)
(declare-fun cell_7_6 () Int)
(declare-fun cell_8_6 () Int)
(declare-fun cell_9_6 () Int)
(declare-fun cell_1_7 () Int)
(declare-fun cell_2_7 () Int)
(declare-fun cell_3_7 () Int)
(declare-fun cell_4_7 () Int)
(declare-fun cell_5_7 () Int)
(declare-fun cell_6_7 () Int)
(declare-fun cell_7_7 () Int)
(declare-fun cell_8_7 () Int)
(declare-fun cell_9_7 () Int)
(declare-fun cell_1_8 () Int)
(declare-fun cell_2_8 () Int)
(declare-fun cell_4_8 () Int)
(declare-fun cell_5_8 () Int)
(declare-fun cell_6_8 () Int)
(declare-fun cell_7_8 () Int)
(declare-fun cell_8_8 () Int)
(declare-fun cell_9_8 () Int)
(declare-fun cell_1_9 () Int)
(declare-fun cell_2_9 () Int)
(declare-fun cell_3_9 () Int)
(declare-fun cell_4_9 () Int)
(declare-fun cell_6_9 () Int)
(declare-fun cell_7_9 () Int)
(declare-fun cell_8_9 () Int)
(declare-fun cell_9_9 () Int)
(assert
 (= cell_1_3 1))
(assert
 (= cell_2_6 1))
(assert
 (= cell_3_8 1))
(assert
 (= cell_4_2 1))
(assert
 (= cell_5_9 1))
(assert
 (= cell_6_4 1))
(assert
 (= cell_7_5 1))
(assert
 (= cell_8_1 1))
(assert
 (let (($x6134 (= cell_1_1 9)))
 (let (($x2510 (= cell_1_1 8)))
 (let (($x6823 (= cell_1_1 7)))
 (let (($x6665 (= cell_1_1 6)))
 (let (($x10229 (= cell_1_1 5)))
 (let (($x6423 (= cell_1_1 4)))
 (let (($x6160 (= cell_1_1 3)))
 (let (($x5104 (= cell_1_1 2)))
 (let (($x1373 (= cell_1_1 1)))
 (or $x1373 $x5104 $x6160 $x6423 $x10229 $x6665 $x6823 $x2510 $x6134)))))))))))
(assert
 (let (($x2340 (= cell_2_1 9)))
 (let (($x585 (= cell_2_1 8)))
 (let (($x2897 (= cell_2_1 7)))
 (let (($x1709 (= cell_2_1 6)))
 (let (($x6725 (= cell_2_1 5)))
 (let (($x8647 (= cell_2_1 4)))
 (let (($x1653 (= cell_2_1 3)))
 (let (($x8791 (= cell_2_1 2)))
 (let (($x9918 (= cell_2_1 1)))
 (or $x9918 $x8791 $x1653 $x8647 $x6725 $x1709 $x2897 $x585 $x2340)))))))))))
(assert
 (let (($x1211 (= cell_3_1 9)))
 (let (($x1799 (= cell_3_1 8)))
 (let (($x5805 (= cell_3_1 7)))
 (let (($x1819 (= cell_3_1 6)))
 (let (($x4984 (= cell_3_1 5)))
 (let (($x2616 (= cell_3_1 4)))
 (let (($x3800 (= cell_3_1 3)))
 (let (($x4810 (= cell_3_1 2)))
 (let (($x10006 (= cell_3_1 1)))
 (or $x10006 $x4810 $x3800 $x2616 $x4984 $x1819 $x5805 $x1799 $x1211)))))))))))
(assert
 (let (($x8522 (= cell_4_1 9)))
 (let (($x3220 (= cell_4_1 8)))
 (let (($x6533 (= cell_4_1 7)))
 (let (($x404 (= cell_4_1 6)))
 (let (($x9364 (= cell_4_1 5)))
 (let (($x4200 (= cell_4_1 4)))
 (let (($x1913 (= cell_4_1 3)))
 (let (($x2037 (= cell_4_1 2)))
 (let (($x8784 (= cell_4_1 1)))
 (or $x8784 $x2037 $x1913 $x4200 $x9364 $x404 $x6533 $x3220 $x8522)))))))))))
(assert
 (let (($x3533 (= cell_5_1 9)))
 (let (($x7298 (= cell_5_1 8)))
 (let (($x8736 (= cell_5_1 7)))
 (let (($x9463 (= cell_5_1 6)))
 (let (($x3219 (= cell_5_1 5)))
 (let (($x1331 (= cell_5_1 4)))
 (let (($x6387 (= cell_5_1 3)))
 (let (($x6924 (= cell_5_1 2)))
 (let (($x362 (= cell_5_1 1)))
 (or $x362 $x6924 $x6387 $x1331 $x3219 $x9463 $x8736 $x7298 $x3533)))))))))))
(assert
 (let (($x5170 (= cell_6_1 9)))
 (let (($x3184 (= cell_6_1 8)))
 (let (($x7337 (= cell_6_1 7)))
 (let (($x643 (= cell_6_1 6)))
 (let (($x1619 (= cell_6_1 5)))
 (let (($x5490 (= cell_6_1 4)))
 (let (($x8565 (= cell_6_1 3)))
 (let (($x928 (= cell_6_1 2)))
 (let (($x7665 (= cell_6_1 1)))
 (or $x7665 $x928 $x8565 $x5490 $x1619 $x643 $x7337 $x3184 $x5170)))))))))))
(assert
 (let (($x7552 (= cell_7_1 9)))
 (let (($x8016 (= cell_7_1 8)))
 (let (($x6149 (= cell_7_1 7)))
 (let (($x3169 (= cell_7_1 6)))
 (let (($x7983 (= cell_7_1 5)))
 (let (($x48 (= cell_7_1 4)))
 (let (($x8531 (= cell_7_1 3)))
 (let (($x9715 (= cell_7_1 2)))
 (let (($x921 (= cell_7_1 1)))
 (or $x921 $x9715 $x8531 $x48 $x7983 $x3169 $x6149 $x8016 $x7552)))))))))))
(assert
 (let (($x2167 (= cell_8_1 1)))
 (or $x2167 (= cell_8_1 2) (= cell_8_1 3) (= cell_8_1 4) (= cell_8_1 5) (= cell_8_1 6) (= cell_8_1 7) (= cell_8_1 8) (= cell_8_1 9))))
(assert
 (let (($x9460 (= cell_9_1 1)))
 (or $x9460 (= cell_9_1 2) (= cell_9_1 3) (= cell_9_1 4) (= cell_9_1 5) (= cell_9_1 6) (= cell_9_1 7) (= cell_9_1 8) (= cell_9_1 9))))
(assert
 (let (($x6152 (= cell_1_2 9)))
 (let (($x1295 (= cell_1_2 8)))
 (let (($x447 (= cell_1_2 7)))
 (let (($x1453 (= cell_1_2 6)))
 (let (($x7604 (= cell_1_2 5)))
 (let (($x7158 (= cell_1_2 4)))
 (let (($x3379 (= cell_1_2 3)))
 (let (($x4483 (= cell_1_2 2)))
 (let (($x4919 (= cell_1_2 1)))
 (or $x4919 $x4483 $x3379 $x7158 $x7604 $x1453 $x447 $x1295 $x6152)))))))))))
(assert
 (let (($x6068 (= cell_2_2 9)))
 (let (($x7740 (= cell_2_2 8)))
 (let (($x7384 (= cell_2_2 7)))
 (let (($x9890 (= cell_2_2 6)))
 (let (($x6150 (= cell_2_2 5)))
 (let (($x6081 (= cell_2_2 4)))
 (let (($x2298 (= cell_2_2 3)))
 (let (($x1527 (= cell_2_2 2)))
 (let (($x3900 (= cell_2_2 1)))
 (or $x3900 $x1527 $x2298 $x6081 $x6150 $x9890 $x7384 $x7740 $x6068)))))))))))
(assert
 (let (($x1793 (= cell_3_2 9)))
 (let (($x2466 (= cell_3_2 8)))
 (let (($x5054 (= cell_3_2 7)))
 (let (($x10190 (= cell_3_2 6)))
 (let (($x6735 (= cell_3_2 5)))
 (let (($x8519 (= cell_3_2 4)))
 (let (($x4724 (= cell_3_2 3)))
 (let (($x7167 (= cell_3_2 2)))
 (let (($x9236 (= cell_3_2 1)))
 (or $x9236 $x7167 $x4724 $x8519 $x6735 $x10190 $x5054 $x2466 $x1793)))))))))))
(assert
 (let (($x8456 (= cell_4_2 1)))
 (or $x8456 (= cell_4_2 2) (= cell_4_2 3) (= cell_4_2 4) (= cell_4_2 5) (= cell_4_2 6) (= cell_4_2 7) (= cell_4_2 8) (= cell_4_2 9))))
(assert
 (let (($x5425 (= cell_5_2 9)))
 (let (($x255 (= cell_5_2 8)))
 (let (($x4716 (= cell_5_2 7)))
 (let (($x7655 (= cell_5_2 6)))
 (let (($x8430 (= cell_5_2 5)))
 (let (($x2782 (= cell_5_2 4)))
 (let (($x2629 (= cell_5_2 3)))
 (let (($x10242 (= cell_5_2 2)))
 (let (($x6498 (= cell_5_2 1)))
 (or $x6498 $x10242 $x2629 $x2782 $x8430 $x7655 $x4716 $x255 $x5425)))))))))))
(assert
 (let (($x2504 (= cell_6_2 9)))
 (let (($x7778 (= cell_6_2 8)))
 (let (($x2215 (= cell_6_2 7)))
 (let (($x1099 (= cell_6_2 6)))
 (let (($x7221 (= cell_6_2 5)))
 (let (($x2276 (= cell_6_2 4)))
 (let (($x8479 (= cell_6_2 3)))
 (let (($x131 (= cell_6_2 2)))
 (let (($x6980 (= cell_6_2 1)))
 (or $x6980 $x131 $x8479 $x2276 $x7221 $x1099 $x2215 $x7778 $x2504)))))))))))
(assert
 (let (($x9474 (= cell_7_2 9)))
 (let (($x2357 (= cell_7_2 8)))
 (let (($x6947 (= cell_7_2 7)))
 (let (($x3971 (= cell_7_2 6)))
 (let (($x2982 (= cell_7_2 5)))
 (let (($x7911 (= cell_7_2 4)))
 (let (($x1611 (= cell_7_2 3)))
 (let (($x3134 (= cell_7_2 2)))
 (let (($x1673 (= cell_7_2 1)))
 (or $x1673 $x3134 $x1611 $x7911 $x2982 $x3971 $x6947 $x2357 $x9474)))))))))))
(assert
 (let (($x2415 (= cell_8_2 1)))
 (or $x2415 (= cell_8_2 2) (= cell_8_2 3) (= cell_8_2 4) (= cell_8_2 5) (= cell_8_2 6) (= cell_8_2 7) (= cell_8_2 8) (= cell_8_2 9))))
(assert
 (let (($x3136 (= cell_9_2 1)))
 (or $x3136 (= cell_9_2 2) (= cell_9_2 3) (= cell_9_2 4) (= cell_9_2 5) (= cell_9_2 6) (= cell_9_2 7) (= cell_9_2 8) (= cell_9_2 9))))
(assert
 (let (($x4262 (= cell_1_3 1)))
 (or $x4262 (= cell_1_3 2) (= cell_1_3 3) (= cell_1_3 4) (= cell_1_3 5) (= cell_1_3 6) (= cell_1_3 7) (= cell_1_3 8) (= cell_1_3 9))))
(assert
 (let (($x433 (= cell_2_3 9)))
 (let (($x7432 (= cell_2_3 8)))
 (let (($x7914 (= cell_2_3 7)))
 (let (($x2027 (= cell_2_3 6)))
 (let (($x8173 (= cell_2_3 5)))
 (let (($x9767 (= cell_2_3 4)))
 (let (($x3771 (= cell_2_3 3)))
 (let (($x326 (= cell_2_3 2)))
 (let (($x5136 (= cell_2_3 1)))
 (or $x5136 $x326 $x3771 $x9767 $x8173 $x2027 $x7914 $x7432 $x433)))))))))))
(assert
 (let (($x5586 (= cell_3_3 9)))
 (let (($x8102 (= cell_3_3 8)))
 (let (($x81 (= cell_3_3 7)))
 (let (($x3848 (= cell_3_3 6)))
 (let (($x4688 (= cell_3_3 5)))
 (let (($x1265 (= cell_3_3 4)))
 (let (($x4544 (= cell_3_3 3)))
 (let (($x4762 (= cell_3_3 2)))
 (let (($x431 (= cell_3_3 1)))
 (or $x431 $x4762 $x4544 $x1265 $x4688 $x3848 $x81 $x8102 $x5586)))))))))))
(assert
 (let (($x5928 (= cell_4_3 1)))
 (or $x5928 (= cell_4_3 2) (= cell_4_3 3) (= cell_4_3 4) (= cell_4_3 5) (= cell_4_3 6) (= cell_4_3 7) (= cell_4_3 8) (= cell_4_3 9))))
(assert
 (let (($x4034 (= cell_5_3 9)))
 (let (($x7309 (= cell_5_3 8)))
 (let (($x5487 (= cell_5_3 7)))
 (let (($x1871 (= cell_5_3 6)))
 (let (($x5330 (= cell_5_3 5)))
 (let (($x483 (= cell_5_3 4)))
 (let (($x3496 (= cell_5_3 3)))
 (let (($x4747 (= cell_5_3 2)))
 (let (($x10052 (= cell_5_3 1)))
 (or $x10052 $x4747 $x3496 $x483 $x5330 $x1871 $x5487 $x7309 $x4034)))))))))))
(assert
 (let (($x8716 (= cell_6_3 9)))
 (let (($x8940 (= cell_6_3 8)))
 (let (($x727 (= cell_6_3 7)))
 (let (($x8514 (= cell_6_3 6)))
 (let (($x4424 (= cell_6_3 5)))
 (let (($x4179 (= cell_6_3 4)))
 (let (($x1744 (= cell_6_3 3)))
 (let (($x549 (= cell_6_3 2)))
 (let (($x100 (= cell_6_3 1)))
 (or $x100 $x549 $x1744 $x4179 $x4424 $x8514 $x727 $x8940 $x8716)))))))))))
(assert
 (let (($x1201 (= cell_7_3 9)))
 (let (($x270 (= cell_7_3 8)))
 (let (($x9771 (= cell_7_3 7)))
 (let (($x7035 (= cell_7_3 6)))
 (let (($x9257 (= cell_7_3 5)))
 (let (($x3836 (= cell_7_3 4)))
 (let (($x5484 (= cell_7_3 3)))
 (let (($x4513 (= cell_7_3 2)))
 (let (($x7765 (= cell_7_3 1)))
 (or $x7765 $x4513 $x5484 $x3836 $x9257 $x7035 $x9771 $x270 $x1201)))))))))))
(assert
 (let (($x9935 (= cell_8_3 1)))
 (or $x9935 (= cell_8_3 2) (= cell_8_3 3) (= cell_8_3 4) (= cell_8_3 5) (= cell_8_3 6) (= cell_8_3 7) (= cell_8_3 8) (= cell_8_3 9))))
(assert
 (let (($x7116 (= cell_9_3 1)))
 (or $x7116 (= cell_9_3 2) (= cell_9_3 3) (= cell_9_3 4) (= cell_9_3 5) (= cell_9_3 6) (= cell_9_3 7) (= cell_9_3 8) (= cell_9_3 9))))
(assert
 (let (($x9716 (= cell_1_4 9)))
 (let (($x5868 (= cell_1_4 8)))
 (let (($x3770 (= cell_1_4 7)))
 (let (($x10063 (= cell_1_4 6)))
 (let (($x134 (= cell_1_4 5)))
 (let (($x4300 (= cell_1_4 4)))
 (let (($x9134 (= cell_1_4 3)))
 (let (($x4284 (= cell_1_4 2)))
 (let (($x4147 (= cell_1_4 1)))
 (or $x4147 $x4284 $x9134 $x4300 $x134 $x10063 $x3770 $x5868 $x9716)))))))))))
(assert
 (let (($x931 (= cell_2_4 9)))
 (let (($x6786 (= cell_2_4 8)))
 (let (($x10161 (= cell_2_4 7)))
 (let (($x7128 (= cell_2_4 6)))
 (let (($x8488 (= cell_2_4 5)))
 (let (($x8291 (= cell_2_4 4)))
 (let (($x5153 (= cell_2_4 3)))
 (let (($x8834 (= cell_2_4 2)))
 (let (($x550 (= cell_2_4 1)))
 (or $x550 $x8834 $x5153 $x8291 $x8488 $x7128 $x10161 $x6786 $x931)))))))))))
(assert
 (let (($x891 (= cell_3_4 9)))
 (let (($x8359 (= cell_3_4 8)))
 (let (($x4405 (= cell_3_4 7)))
 (let (($x3844 (= cell_3_4 6)))
 (let (($x4927 (= cell_3_4 5)))
 (let (($x7342 (= cell_3_4 4)))
 (let (($x485 (= cell_3_4 3)))
 (let (($x7610 (= cell_3_4 2)))
 (let (($x7415 (= cell_3_4 1)))
 (or $x7415 $x7610 $x485 $x7342 $x4927 $x3844 $x4405 $x8359 $x891)))))))))))
(assert
 (let (($x7103 (= cell_4_4 9)))
 (let (($x7720 (= cell_4_4 8)))
 (let (($x729 (= cell_4_4 7)))
 (let (($x6407 (= cell_4_4 6)))
 (let (($x5678 (= cell_4_4 5)))
 (let (($x10050 (= cell_4_4 4)))
 (let (($x7003 (= cell_4_4 3)))
 (let (($x6080 (= cell_4_4 2)))
 (let (($x5653 (= cell_4_4 1)))
 (or $x5653 $x6080 $x7003 $x10050 $x5678 $x6407 $x729 $x7720 $x7103)))))))))))
(assert
 (let (($x5400 (= cell_5_4 9)))
 (let (($x3365 (= cell_5_4 8)))
 (let (($x9299 (= cell_5_4 7)))
 (let (($x2852 (= cell_5_4 6)))
 (let (($x3640 (= cell_5_4 5)))
 (let (($x1409 (= cell_5_4 4)))
 (let (($x1688 (= cell_5_4 3)))
 (let (($x7924 (= cell_5_4 2)))
 (let (($x4603 (= cell_5_4 1)))
 (or $x4603 $x7924 $x1688 $x1409 $x3640 $x2852 $x9299 $x3365 $x5400)))))))))))
(assert
 (let (($x7739 (= cell_6_4 1)))
 (or $x7739 (= cell_6_4 2) (= cell_6_4 3) (= cell_6_4 4) (= cell_6_4 5) (= cell_6_4 6) (= cell_6_4 7) (= cell_6_4 8) (= cell_6_4 9))))
(assert
 (let (($x5138 (= cell_7_4 9)))
 (let (($x7580 (= cell_7_4 8)))
 (let (($x8555 (= cell_7_4 7)))
 (let (($x5643 (= cell_7_4 6)))
 (let (($x526 (= cell_7_4 5)))
 (let (($x8820 (= cell_7_4 4)))
 (let (($x6833 (= cell_7_4 3)))
 (let (($x6658 (= cell_7_4 2)))
 (let (($x1752 (= cell_7_4 1)))
 (or $x1752 $x6658 $x6833 $x8820 $x526 $x5643 $x8555 $x7580 $x5138)))))))))))
(assert
 (let (($x9707 (= cell_8_4 1)))
 (or $x9707 (= cell_8_4 2) (= cell_8_4 3) (= cell_8_4 4) (= cell_8_4 5) (= cell_8_4 6) (= cell_8_4 7) (= cell_8_4 8) (= cell_8_4 9))))
(assert
 (let (($x5833 (= cell_9_4 1)))
 (or $x5833 (= cell_9_4 2) (= cell_9_4 3) (= cell_9_4 4) (= cell_9_4 5) (= cell_9_4 6) (= cell_9_4 7) (= cell_9_4 8) (= cell_9_4 9))))
(assert
 (let (($x2017 (= cell_1_5 9)))
 (let (($x5155 (= cell_1_5 8)))
 (let (($x313 (= cell_1_5 7)))
 (let (($x3805 (= cell_1_5 6)))
 (let (($x1912 (= cell_1_5 5)))
 (let (($x6039 (= cell_1_5 4)))
 (let (($x4107 (= cell_1_5 3)))
 (let (($x6372 (= cell_1_5 2)))
 (let (($x8648 (= cell_1_5 1)))
 (or $x8648 $x6372 $x4107 $x6039 $x1912 $x3805 $x313 $x5155 $x2017)))))))))))
(assert
 (let (($x4250 (= cell_2_5 9)))
 (let (($x21 (= cell_2_5 8)))
 (let (($x720 (= cell_2_5 7)))
 (let (($x5853 (= cell_2_5 6)))
 (let (($x3393 (= cell_2_5 5)))
 (let (($x4352 (= cell_2_5 4)))
 (let (($x9027 (= cell_2_5 3)))
 (let (($x6720 (= cell_2_5 2)))
 (let (($x8412 (= cell_2_5 1)))
 (or $x8412 $x6720 $x9027 $x4352 $x3393 $x5853 $x720 $x21 $x4250)))))))))))
(assert
 (let (($x836 (= cell_3_5 9)))
 (let (($x6470 (= cell_3_5 8)))
 (let (($x505 (= cell_3_5 7)))
 (let (($x1162 (= cell_3_5 6)))
 (let (($x8270 (= cell_3_5 5)))
 (let (($x1955 (= cell_3_5 4)))
 (let (($x1208 (= cell_3_5 3)))
 (let (($x9501 (= cell_3_5 2)))
 (let (($x3300 (= cell_3_5 1)))
 (or $x3300 $x9501 $x1208 $x1955 $x8270 $x1162 $x505 $x6470 $x836)))))))))))
(assert
 (let (($x9029 (= cell_4_5 9)))
 (let (($x2898 (= cell_4_5 8)))
 (let (($x117 (= cell_4_5 7)))
 (let (($x4009 (= cell_4_5 6)))
 (let (($x851 (= cell_4_5 5)))
 (let (($x7443 (= cell_4_5 4)))
 (let (($x5494 (= cell_4_5 3)))
 (let (($x8576 (= cell_4_5 2)))
 (let (($x7897 (= cell_4_5 1)))
 (or $x7897 $x8576 $x5494 $x7443 $x851 $x4009 $x117 $x2898 $x9029)))))))))))
(assert
 (let (($x4859 (= cell_5_5 9)))
 (let (($x1434 (= cell_5_5 8)))
 (let (($x7491 (= cell_5_5 7)))
 (let (($x2360 (= cell_5_5 6)))
 (let (($x2337 (= cell_5_5 5)))
 (let (($x1073 (= cell_5_5 4)))
 (let (($x6449 (= cell_5_5 3)))
 (let (($x3132 (= cell_5_5 2)))
 (let (($x8309 (= cell_5_5 1)))
 (or $x8309 $x3132 $x6449 $x1073 $x2337 $x2360 $x7491 $x1434 $x4859)))))))))))
(assert
 (let (($x958 (= cell_6_5 9)))
 (let (($x2569 (= cell_6_5 8)))
 (let (($x4438 (= cell_6_5 7)))
 (let (($x4558 (= cell_6_5 6)))
 (let (($x4987 (= cell_6_5 5)))
 (let (($x3020 (= cell_6_5 4)))
 (let (($x4412 (= cell_6_5 3)))
 (let (($x2210 (= cell_6_5 2)))
 (let (($x10281 (= cell_6_5 1)))
 (or $x10281 $x2210 $x4412 $x3020 $x4987 $x4558 $x4438 $x2569 $x958)))))))))))
(assert
 (let (($x4399 (= cell_7_5 1)))
 (or $x4399 (= cell_7_5 2) (= cell_7_5 3) (= cell_7_5 4) (= cell_7_5 5) (= cell_7_5 6) (= cell_7_5 7) (= cell_7_5 8) (= cell_7_5 9))))
(assert
 (let (($x3170 (= cell_8_5 1)))
 (or $x3170 (= cell_8_5 2) (= cell_8_5 3) (= cell_8_5 4) (= cell_8_5 5) (= cell_8_5 6) (= cell_8_5 7) (= cell_8_5 8) (= cell_8_5 9))))
(assert
 (let (($x9123 (= cell_9_5 1)))
 (or $x9123 (= cell_9_5 2) (= cell_9_5 3) (= cell_9_5 4) (= cell_9_5 5) (= cell_9_5 6) (= cell_9_5 7) (= cell_9_5 8) (= cell_9_5 9))))
(assert
 (let (($x7845 (= cell_1_6 9)))
 (let (($x8498 (= cell_1_6 8)))
 (let (($x3517 (= cell_1_6 7)))
 (let (($x9791 (= cell_1_6 6)))
 (let (($x5463 (= cell_1_6 5)))
 (let (($x8751 (= cell_1_6 4)))
 (let (($x6046 (= cell_1_6 3)))
 (let (($x4264 (= cell_1_6 2)))
 (let (($x8540 (= cell_1_6 1)))
 (or $x8540 $x4264 $x6046 $x8751 $x5463 $x9791 $x3517 $x8498 $x7845)))))))))))
(assert
 (let (($x8367 (= cell_2_6 1)))
 (or $x8367 (= cell_2_6 2) (= cell_2_6 3) (= cell_2_6 4) (= cell_2_6 5) (= cell_2_6 6) (= cell_2_6 7) (= cell_2_6 8) (= cell_2_6 9))))
(assert
 (let (($x7454 (= cell_3_6 9)))
 (let (($x6782 (= cell_3_6 8)))
 (let (($x7172 (= cell_3_6 7)))
 (let (($x4021 (= cell_3_6 6)))
 (let (($x9624 (= cell_3_6 5)))
 (let (($x4382 (= cell_3_6 4)))
 (let (($x8453 (= cell_3_6 3)))
 (let (($x5756 (= cell_3_6 2)))
 (let (($x7217 (= cell_3_6 1)))
 (or $x7217 $x5756 $x8453 $x4382 $x9624 $x4021 $x7172 $x6782 $x7454)))))))))))
(assert
 (let (($x467 (= cell_4_6 9)))
 (let (($x4215 (= cell_4_6 8)))
 (let (($x8444 (= cell_4_6 7)))
 (let (($x3722 (= cell_4_6 6)))
 (let (($x3630 (= cell_4_6 5)))
 (let (($x2625 (= cell_4_6 4)))
 (let (($x1334 (= cell_4_6 3)))
 (let (($x765 (= cell_4_6 2)))
 (let (($x1953 (= cell_4_6 1)))
 (or $x1953 $x765 $x1334 $x2625 $x3630 $x3722 $x8444 $x4215 $x467)))))))))))
(assert
 (let (($x6004 (= cell_5_6 9)))
 (let (($x9201 (= cell_5_6 8)))
 (let (($x3066 (= cell_5_6 7)))
 (let (($x8842 (= cell_5_6 6)))
 (let (($x2966 (= cell_5_6 5)))
 (let (($x2338 (= cell_5_6 4)))
 (let (($x3992 (= cell_5_6 3)))
 (let (($x9904 (= cell_5_6 2)))
 (let (($x3652 (= cell_5_6 1)))
 (or $x3652 $x9904 $x3992 $x2338 $x2966 $x8842 $x3066 $x9201 $x6004)))))))))))
(assert
 (let (($x4792 (= cell_6_6 1)))
 (or $x4792 (= cell_6_6 2) (= cell_6_6 3) (= cell_6_6 4) (= cell_6_6 5) (= cell_6_6 6) (= cell_6_6 7) (= cell_6_6 8) (= cell_6_6 9))))
(assert
 (let (($x7452 (= cell_7_6 1)))
 (or $x7452 (= cell_7_6 2) (= cell_7_6 3) (= cell_7_6 4) (= cell_7_6 5) (= cell_7_6 6) (= cell_7_6 7) (= cell_7_6 8) (= cell_7_6 9))))
(assert
 (let (($x7554 (= cell_8_6 1)))
 (or $x7554 (= cell_8_6 2) (= cell_8_6 3) (= cell_8_6 4) (= cell_8_6 5) (= cell_8_6 6) (= cell_8_6 7) (= cell_8_6 8) (= cell_8_6 9))))
(assert
 (let (($x9357 (= cell_9_6 1)))
 (or $x9357 (= cell_9_6 2) (= cell_9_6 3) (= cell_9_6 4) (= cell_9_6 5) (= cell_9_6 6) (= cell_9_6 7) (= cell_9_6 8) (= cell_9_6 9))))
(assert
 (let (($x4231 (= cell_1_7 9)))
 (let (($x5358 (= cell_1_7 8)))
 (let (($x5465 (= cell_1_7 7)))
 (let (($x7511 (= cell_1_7 6)))
 (let (($x3664 (= cell_1_7 5)))
 (let (($x1560 (= cell_1_7 4)))
 (let (($x2912 (= cell_1_7 3)))
 (let (($x5940 (= cell_1_7 2)))
 (let (($x6707 (= cell_1_7 1)))
 (or $x6707 $x5940 $x2912 $x1560 $x3664 $x7511 $x5465 $x5358 $x4231)))))))))))
(assert
 (let (($x8076 (= cell_2_7 9)))
 (let (($x3978 (= cell_2_7 8)))
 (let (($x6079 (= cell_2_7 7)))
 (let (($x5917 (= cell_2_7 6)))
 (let (($x7791 (= cell_2_7 5)))
 (let (($x4106 (= cell_2_7 4)))
 (let (($x9384 (= cell_2_7 3)))
 (let (($x2654 (= cell_2_7 2)))
 (let (($x7023 (= cell_2_7 1)))
 (or $x7023 $x2654 $x9384 $x4106 $x7791 $x5917 $x6079 $x3978 $x8076)))))))))))
(assert
 (let (($x9289 (= cell_3_7 9)))
 (let (($x2246 (= cell_3_7 8)))
 (let (($x217 (= cell_3_7 7)))
 (let (($x6456 (= cell_3_7 6)))
 (let (($x1512 (= cell_3_7 5)))
 (let (($x8947 (= cell_3_7 4)))
 (let (($x8908 (= cell_3_7 3)))
 (let (($x556 (= cell_3_7 2)))
 (let (($x7 (= cell_3_7 1)))
 (or $x7 $x556 $x8908 $x8947 $x1512 $x6456 $x217 $x2246 $x9289)))))))))))
(assert
 (let (($x2918 (= cell_4_7 9)))
 (let (($x4496 (= cell_4_7 8)))
 (let (($x2812 (= cell_4_7 7)))
 (let (($x3344 (= cell_4_7 6)))
 (let (($x1715 (= cell_4_7 5)))
 (let (($x2075 (= cell_4_7 4)))
 (let (($x8060 (= cell_4_7 3)))
 (let (($x9378 (= cell_4_7 2)))
 (let (($x9393 (= cell_4_7 1)))
 (or $x9393 $x9378 $x8060 $x2075 $x1715 $x3344 $x2812 $x4496 $x2918)))))))))))
(assert
 (let (($x2404 (= cell_5_7 9)))
 (let (($x9402 (= cell_5_7 8)))
 (let (($x5008 (= cell_5_7 7)))
 (let (($x4941 (= cell_5_7 6)))
 (let (($x6517 (= cell_5_7 5)))
 (let (($x1596 (= cell_5_7 4)))
 (let (($x1437 (= cell_5_7 3)))
 (let (($x1294 (= cell_5_7 2)))
 (let (($x360 (= cell_5_7 1)))
 (or $x360 $x1294 $x1437 $x1596 $x6517 $x4941 $x5008 $x9402 $x2404)))))))))))
(assert
 (let (($x157 (= cell_6_7 1)))
 (or $x157 (= cell_6_7 2) (= cell_6_7 3) (= cell_6_7 4) (= cell_6_7 5) (= cell_6_7 6) (= cell_6_7 7) (= cell_6_7 8) (= cell_6_7 9))))
(assert
 (let (($x6126 (= cell_7_7 1)))
 (or $x6126 (= cell_7_7 2) (= cell_7_7 3) (= cell_7_7 4) (= cell_7_7 5) (= cell_7_7 6) (= cell_7_7 7) (= cell_7_7 8) (= cell_7_7 9))))
(assert
 (let (($x9334 (= cell_8_7 1)))
 (or $x9334 (= cell_8_7 2) (= cell_8_7 3) (= cell_8_7 4) (= cell_8_7 5) (= cell_8_7 6) (= cell_8_7 7) (= cell_8_7 8) (= cell_8_7 9))))
(assert
 (let (($x9959 (= cell_9_7 1)))
 (or $x9959 (= cell_9_7 2) (= cell_9_7 3) (= cell_9_7 4) (= cell_9_7 5) (= cell_9_7 6) (= cell_9_7 7) (= cell_9_7 8) (= cell_9_7 9))))
(assert
 (let (($x10131 (= cell_1_8 9)))
 (let (($x8962 (= cell_1_8 8)))
 (let (($x6036 (= cell_1_8 7)))
 (let (($x5396 (= cell_1_8 6)))
 (let (($x6570 (= cell_1_8 5)))
 (let (($x8020 (= cell_1_8 4)))
 (let (($x1389 (= cell_1_8 3)))
 (let (($x1926 (= cell_1_8 2)))
 (let (($x1724 (= cell_1_8 1)))
 (or $x1724 $x1926 $x1389 $x8020 $x6570 $x5396 $x6036 $x8962 $x10131)))))))))))
(assert
 (let (($x4986 (= cell_2_8 9)))
 (let (($x10012 (= cell_2_8 8)))
 (let (($x8051 (= cell_2_8 7)))
 (let (($x9204 (= cell_2_8 6)))
 (let (($x8221 (= cell_2_8 5)))
 (let (($x5475 (= cell_2_8 4)))
 (let (($x4511 (= cell_2_8 3)))
 (let (($x8246 (= cell_2_8 2)))
 (let (($x9523 (= cell_2_8 1)))
 (or $x9523 $x8246 $x4511 $x5475 $x8221 $x9204 $x8051 $x10012 $x4986)))))))))))
(assert
 (let (($x5947 (= cell_3_8 1)))
 (or $x5947 (= cell_3_8 2) (= cell_3_8 3) (= cell_3_8 4) (= cell_3_8 5) (= cell_3_8 6) (= cell_3_8 7) (= cell_3_8 8) (= cell_3_8 9))))
(assert
 (let (($x3711 (= cell_4_8 9)))
 (let (($x2561 (= cell_4_8 8)))
 (let (($x9508 (= cell_4_8 7)))
 (let (($x7988 (= cell_4_8 6)))
 (let (($x1293 (= cell_4_8 5)))
 (let (($x2927 (= cell_4_8 4)))
 (let (($x3250 (= cell_4_8 3)))
 (let (($x4029 (= cell_4_8 2)))
 (let (($x5555 (= cell_4_8 1)))
 (or $x5555 $x4029 $x3250 $x2927 $x1293 $x7988 $x9508 $x2561 $x3711)))))))))))
(assert
 (let (($x971 (= cell_5_8 9)))
 (let (($x5071 (= cell_5_8 8)))
 (let (($x747 (= cell_5_8 7)))
 (let (($x7434 (= cell_5_8 6)))
 (let (($x3385 (= cell_5_8 5)))
 (let (($x7641 (= cell_5_8 4)))
 (let (($x3377 (= cell_5_8 3)))
 (let (($x6878 (= cell_5_8 2)))
 (let (($x496 (= cell_5_8 1)))
 (or $x496 $x6878 $x3377 $x7641 $x3385 $x7434 $x747 $x5071 $x971)))))))))))
(assert
 (let (($x3864 (= cell_6_8 1)))
 (or $x3864 (= cell_6_8 2) (= cell_6_8 3) (= cell_6_8 4) (= cell_6_8 5) (= cell_6_8 6) (= cell_6_8 7) (= cell_6_8 8) (= cell_6_8 9))))
(assert
 (let (($x8563 (= cell_7_8 1)))
 (or $x8563 (= cell_7_8 2) (= cell_7_8 3) (= cell_7_8 4) (= cell_7_8 5) (= cell_7_8 6) (= cell_7_8 7) (= cell_7_8 8) (= cell_7_8 9))))
(assert
 (let (($x4486 (= cell_8_8 1)))
 (or $x4486 (= cell_8_8 2) (= cell_8_8 3) (= cell_8_8 4) (= cell_8_8 5) (= cell_8_8 6) (= cell_8_8 7) (= cell_8_8 8) (= cell_8_8 9))))
(assert
 (let (($x9444 (= cell_9_8 1)))
 (or $x9444 (= cell_9_8 2) (= cell_9_8 3) (= cell_9_8 4) (= cell_9_8 5) (= cell_9_8 6) (= cell_9_8 7) (= cell_9_8 8) (= cell_9_8 9))))
(assert
 (let (($x8515 (= cell_1_9 9)))
 (let (($x2205 (= cell_1_9 8)))
 (let (($x3143 (= cell_1_9 7)))
 (let (($x5101 (= cell_1_9 6)))
 (let (($x2593 (= cell_1_9 5)))
 (let (($x8207 (= cell_1_9 4)))
 (let (($x8777 (= cell_1_9 3)))
 (let (($x7494 (= cell_1_9 2)))
 (let (($x8885 (= cell_1_9 1)))
 (or $x8885 $x7494 $x8777 $x8207 $x2593 $x5101 $x3143 $x2205 $x8515)))))))))))
(assert
 (let (($x5990 (= cell_2_9 9)))
 (let (($x4038 (= cell_2_9 8)))
 (let (($x7594 (= cell_2_9 7)))
 (let (($x9083 (= cell_2_9 6)))
 (let (($x9341 (= cell_2_9 5)))
 (let (($x403 (= cell_2_9 4)))
 (let (($x3144 (= cell_2_9 3)))
 (let (($x6807 (= cell_2_9 2)))
 (let (($x6560 (= cell_2_9 1)))
 (or $x6560 $x6807 $x3144 $x403 $x9341 $x9083 $x7594 $x4038 $x5990)))))))))))
(assert
 (let (($x8836 (= cell_3_9 9)))
 (let (($x4072 (= cell_3_9 8)))
 (let (($x5914 (= cell_3_9 7)))
 (let (($x9965 (= cell_3_9 6)))
 (let (($x260 (= cell_3_9 5)))
 (let (($x3437 (= cell_3_9 4)))
 (let (($x1935 (= cell_3_9 3)))
 (let (($x924 (= cell_3_9 2)))
 (let (($x8874 (= cell_3_9 1)))
 (or $x8874 $x924 $x1935 $x3437 $x260 $x9965 $x5914 $x4072 $x8836)))))))))))
(assert
 (let (($x2261 (= cell_4_9 9)))
 (let (($x8342 (= cell_4_9 8)))
 (let (($x9086 (= cell_4_9 7)))
 (let (($x6485 (= cell_4_9 6)))
 (let (($x8002 (= cell_4_9 5)))
 (let (($x4595 (= cell_4_9 4)))
 (let (($x6278 (= cell_4_9 3)))
 (let (($x847 (= cell_4_9 2)))
 (let (($x7530 (= cell_4_9 1)))
 (or $x7530 $x847 $x6278 $x4595 $x8002 $x6485 $x9086 $x8342 $x2261)))))))))))
(assert
 (let (($x4775 (= cell_5_9 1)))
 (or $x4775 (= cell_5_9 2) (= cell_5_9 3) (= cell_5_9 4) (= cell_5_9 5) (= cell_5_9 6) (= cell_5_9 7) (= cell_5_9 8) (= cell_5_9 9))))
(assert
 (let (($x2008 (= cell_6_9 1)))
 (or $x2008 (= cell_6_9 2) (= cell_6_9 3) (= cell_6_9 4) (= cell_6_9 5) (= cell_6_9 6) (= cell_6_9 7) (= cell_6_9 8) (= cell_6_9 9))))
(assert
 (let (($x3687 (= cell_7_9 1)))
 (or $x3687 (= cell_7_9 2) (= cell_7_9 3) (= cell_7_9 4) (= cell_7_9 5) (= cell_7_9 6) (= cell_7_9 7) (= cell_7_9 8) (= cell_7_9 9))))
(assert
 (let (($x1414 (= cell_8_9 1)))
 (or $x1414 (= cell_8_9 2) (= cell_8_9 3) (= cell_8_9 4) (= cell_8_9 5) (= cell_8_9 6) (= cell_8_9 7) (= cell_8_9 8) (= cell_8_9 9))))
(assert
 (let (($x3025 (= cell_9_9 1)))
 (or $x3025 (= cell_9_9 2) (= cell_9_9 3) (= cell_9_9 4) (= cell_9_9 5) (= cell_9_9 6) (= cell_9_9 7) (= cell_9_9 8) (= cell_9_9 9))))
(assert
 (and (distinct cell_1_1 cell_1_2 cell_1_3 cell_1_4 cell_1_5 cell_1_6 cell_1_7 cell_1_8 cell_1_9) true))
(assert
 (and (distinct cell_2_1 cell_2_2 cell_2_3 cell_2_4 cell_2_5 cell_2_6 cell_2_7 cell_2_8 cell_2_9) true))
(assert
 (and (distinct cell_3_1 cell_3_2 cell_3_3 cell_3_4 cell_3_5 cell_3_6 cell_3_7 cell_3_8 cell_3_9) true))
(assert
 (and (distinct cell_4_1 cell_4_2 cell_4_3 cell_4_4 cell_4_5 cell_4_6 cell_4_7 cell_4_8 cell_4_9) true))
(assert
 (and (distinct cell_5_1 cell_5_2 cell_5_3 cell_5_4 cell_5_5 cell_5_6 cell_5_7 cell_5_8 cell_5_9) true))
(assert
 (and (distinct cell_6_1 cell_6_2 cell_6_3 cell_6_4 cell_6_5 cell_6_6 cell_6_7 cell_6_8 cell_6_9) true))
(assert
 (and (distinct cell_7_1 cell_7_2 cell_7_3 cell_7_4 cell_7_5 cell_7_6 cell_7_7 cell_7_8 cell_7_9) true))
(assert
 (and (distinct cell_8_1 cell_8_2 cell_8_3 cell_8_4 cell_8_5 cell_8_6 cell_8_7 cell_8_8 cell_8_9) true))
(assert
 (and (distinct cell_9_1 cell_9_2 cell_9_3 cell_9_4 cell_9_5 cell_9_6 cell_9_7 cell_9_8 cell_9_9) true))
(assert
 (and (distinct cell_1_1 cell_2_1 cell_3_1 cell_4_1 cell_5_1 cell_6_1 cell_7_1 cell_8_1 cell_9_1) true))
(assert
 (and (distinct cell_1_2 cell_2_2 cell_3_2 cell_4_2 cell_5_2 cell_6_2 cell_7_2 cell_8_2 cell_9_2) true))
(assert
 (and (distinct cell_1_3 cell_2_3 cell_3_3 cell_4_3 cell_5_3 cell_6_3 cell_7_3 cell_8_3 cell_9_3) true))
(assert
 (and (distinct cell_1_4 cell_2_4 cell_3_4 cell_4_4 cell_5_4 cell_6_4 cell_7_4 cell_8_4 cell_9_4) true))
(assert
 (and (distinct cell_1_5 cell_2_5 cell_3_5 cell_4_5 cell_5_5 cell_6_5 cell_7_5 cell_8_5 cell_9_5) true))
(assert
 (and (distinct cell_1_6 cell_2_6 cell_3_6 cell_4_6 cell_5_6 cell_6_6 cell_7_6 cell_8_6 cell_9_6) true))
(assert
 (and (distinct cell_1_7 cell_2_7 cell_3_7 cell_4_7 cell_5_7 cell_6_7 cell_7_7 cell_8_7 cell_9_7) true))
(assert
 (and (distinct cell_1_8 cell_2_8 cell_3_8 cell_4_8 cell_5_8 cell_6_8 cell_7_8 cell_8_8 cell_9_8) true))
(assert
 (and (distinct cell_1_9 cell_2_9 cell_3_9 cell_4_9 cell_5_9 cell_6_9 cell_7_9 cell_8_9 cell_9_9) true))
(assert
 (and (distinct cell_1_1 cell_1_2 cell_1_3 cell_2_1 cell_2_2 cell_2_3 cell_3_1 cell_3_2 cell_3_3) true))
(assert
 (and (distinct cell_1_4 cell_1_5 cell_1_6 cell_2_4 cell_2_5 cell_2_6 cell_3_4 cell_3_5 cell_3_6) true))
(assert
 (and (distinct cell_1_7 cell_1_8 cell_1_9 cell_2_7 cell_2_8 cell_2_9 cell_3_7 cell_3_8 cell_3_9) true))
(assert
 (and (distinct cell_4_1 cell_4_2 cell_4_3 cell_5_1 cell_5_2 cell_5_3 cell_6_1 cell_6_2 cell_6_3) true))
(assert
 (and (distinct cell_4_4 cell_4_5 cell_4_6 cell_5_4 cell_5_5 cell_5_6 cell_6_4 cell_6_5 cell_6_6) true))
(assert
 (and (distinct cell_4_7 cell_4_8 cell_4_9 cell_5_7 cell_5_8 cell_5_9 cell_6_7 cell_6_8 cell_6_9) true))
(assert
 (and (distinct cell_7_1 cell_7_2 cell_7_3 cell_8_1 cell_8_2 cell_8_3 cell_9_1 cell_9_2 cell_9_3) true))
(assert
 (and (distinct cell_7_4 cell_7_5 cell_7_6 cell_8_4 cell_8_5 cell_8_6 cell_9_4 cell_9_5 cell_9_6) true))
(assert
 (and (distinct cell_7_7 cell_7_8 cell_7_9 cell_8_7 cell_8_8 cell_8_9 cell_9_7 cell_9_8 cell_9_9) true))
(assert
 (let (($x8141 (and (distinct cell_5_9 cell_6_8 cell_7_7 cell_8_6) true)))
 (let (($x3415 (and (distinct cell_2_9 cell_3_8 cell_4_7 cell_5_6 cell_6_5 cell_7_4 cell_8_3 cell_9_2) true)))
 (let (($x8637 (and (distinct cell_1_8 cell_2_7 cell_3_6 cell_4_5 cell_5_4 cell_6_3 cell_7_2 cell_8_1) true)))
 (let (($x540 (and (distinct cell_1_5 cell_2_4 cell_3_3 cell_4_2) true)))
 (let (($x3479 (and (distinct cell_5_1 cell_6_2 cell_7_3 cell_8_4) true)))
 (let (($x6859 (and (distinct cell_2_1 cell_3_2 cell_4_3 cell_5_4 cell_6_5 cell_7_6 cell_8_7 cell_9_8) true)))
 (let (($x8379 (and (distinct cell_1_2 cell_2_3 cell_3_4 cell_4_5 cell_5_6 cell_6_7 cell_7_8 cell_8_9) true)))
 (let (($x8193 (and (distinct cell_1_5 cell_2_6 cell_3_7 cell_4_8) true)))
 (and $x8193 $x8379 $x6859 $x3479 $x540 $x8637 $x3415 $x8141))))))))))
(assert
 (= cell_9_7 1))
(check-sat)
